c generated by sgen
p cnf 117 244
-2 -3 -4 0
-1 -3 -4 0
-1 -2 -4 0
-1 -2 -3 0
-6 -7 -8 0
-5 -7 -8 0
-5 -6 -8 0
-5 -6 -7 0
-10 -11 -12 0
-9 -11 -12 0
-9 -10 -12 0
-9 -10 -11 0
-14 -15 -16 0
-13 -15 -16 0
-13 -14 -16 0
-13 -14 -15 0
-18 -19 -20 0
-17 -19 -20 0
-17 -18 -20 0
-17 -18 -19 0
-22 -23 -24 0
-21 -23 -24 0
-21 -22 -24 0
-21 -22 -23 0
-26 -27 -28 0
-25 -27 -28 0
-25 -26 -28 0
-25 -26 -27 0
-30 -31 -32 0
-29 -31 -32 0
-29 -30 -32 0
-29 -30 -31 0
-34 -35 -36 0
-33 -35 -36 0
-33 -34 -36 0
-33 -34 -35 0
-38 -39 -40 0
-37 -39 -40 0
-37 -38 -40 0
-37 -38 -39 0
-42 -43 -44 0
-41 -43 -44 0
-41 -42 -44 0
-41 -42 -43 0
-46 -47 -48 0
-45 -47 -48 0
-45 -46 -48 0
-45 -46 -47 0
-50 -51 -52 0
-49 -51 -52 0
-49 -50 -52 0
-49 -50 -51 0
-54 -55 -56 0
-53 -55 -56 0
-53 -54 -56 0
-53 -54 -55 0
-58 -59 -60 0
-57 -59 -60 0
-57 -58 -60 0
-57 -58 -59 0
-62 -63 -64 0
-61 -63 -64 0
-61 -62 -64 0
-61 -62 -63 0
-66 -67 -68 0
-65 -67 -68 0
-65 -66 -68 0
-65 -66 -67 0
-70 -71 -72 0
-69 -71 -72 0
-69 -70 -72 0
-69 -70 -71 0
-74 -75 -76 0
-73 -75 -76 0
-73 -74 -76 0
-73 -74 -75 0
-78 -79 -80 0
-77 -79 -80 0
-77 -78 -80 0
-77 -78 -79 0
-82 -83 -84 0
-81 -83 -84 0
-81 -82 -84 0
-81 -82 -83 0
-86 -87 -88 0
-85 -87 -88 0
-85 -86 -88 0
-85 -86 -87 0
-90 -91 -92 0
-89 -91 -92 0
-89 -90 -92 0
-89 -90 -91 0
-94 -95 -96 0
-93 -95 -96 0
-93 -94 -96 0
-93 -94 -95 0
-98 -99 -100 0
-97 -99 -100 0
-97 -98 -100 0
-97 -98 -99 0
-102 -103 -104 0
-101 -103 -104 0
-101 -102 -104 0
-101 -102 -103 0
-106 -107 -108 0
-105 -107 -108 0
-105 -106 -108 0
-105 -106 -107 0
-110 -111 -112 0
-109 -111 -112 0
-109 -110 -112 0
-109 -110 -111 0
-113 -114 -115 0
-113 -114 -116 0
-113 -114 -117 0
-113 -115 -116 0
-113 -115 -117 0
-113 -116 -117 0
-114 -115 -116 0
-114 -115 -117 0
-114 -116 -117 0
-115 -116 -117 0
1 17 11 0
35 17 11 0
35 1 11 0
35 1 17 0
85 6 116 0
31 6 116 0
31 85 116 0
31 85 6 0
86 10 39 0
13 10 39 0
13 86 39 0
13 86 10 0
24 67 91 0
36 67 91 0
36 24 91 0
36 24 67 0
12 75 79 0
96 75 79 0
96 12 79 0
96 12 75 0
25 111 60 0
33 111 60 0
33 25 60 0
33 25 111 0
95 23 102 0
29 23 102 0
29 95 102 0
29 95 23 0
93 55 8 0
71 55 8 0
71 93 8 0
71 93 55 0
22 105 20 0
57 105 20 0
57 22 20 0
57 22 105 0
92 15 61 0
78 15 61 0
78 92 61 0
78 92 15 0
38 94 4 0
66 94 4 0
66 38 4 0
66 38 94 0
44 9 89 0
59 9 89 0
59 44 89 0
59 44 9 0
52 77 65 0
74 77 65 0
74 52 65 0
74 52 77 0
63 30 97 0
106 30 97 0
106 63 97 0
106 63 30 0
56 41 40 0
98 41 40 0
98 56 40 0
98 56 41 0
87 101 90 0
117 101 90 0
117 87 90 0
117 87 101 0
16 69 114 0
68 69 114 0
68 16 114 0
68 16 69 0
64 34 49 0
54 34 49 0
54 64 49 0
54 64 34 0
28 72 45 0
103 72 45 0
103 28 45 0
103 28 72 0
42 83 73 0
21 83 73 0
21 42 73 0
21 42 83 0
58 7 46 0
100 7 46 0
100 58 46 0
100 58 7 0
18 76 112 0
14 76 112 0
14 18 112 0
14 18 76 0
2 48 62 0
43 48 62 0
43 2 62 0
43 2 48 0
107 80 37 0
5 80 37 0
5 107 37 0
5 107 80 0
110 50 88 0
70 50 88 0
70 110 88 0
70 110 50 0
115 47 51 0
81 47 51 0
81 115 51 0
81 115 47 0
53 113 108 0
27 113 108 0
27 53 108 0
27 53 113 0
32 26 19 0
82 26 19 0
82 32 19 0
82 32 26 0
99 84 109 0
99 84 104 0
99 84 3 0
99 109 104 0
99 109 3 0
99 104 3 0
84 109 104 0
84 109 3 0
84 104 3 0
109 104 3 0
